results/res_prop_muc/res_Cimatti_mathsat_cores/QF_UF/PEQ011_size7.smt.smt2.out

real	1m4.799s
user	1m4.313s
sys	0m0.506s
