results/res_prop_muc/res_Cimatti_mathsat_cores/QF_UF/PEQ011_size7.smt.smt2.res
unsat
( _c0
  _c1
  _c10
  _c100
  _c1000
  _c1001
  _c1002
  _c1003
  _c1004
  _c1005
  _c1006
  _c1007
  _c1008
  _c1009
  _c101
  _c1010
  _c1011
  _c1012
  _c1013
  _c1014
  _c1015
  _c1016
  _c1017
  _c1018
  _c1019
  _c102
  _c1020
  _c1021
  _c1022
  _c1023
  _c1024
  _c1025
  _c1026
  _c1027
  _c1028
  _c1029
  _c103
  _c1030
  _c1031
  _c1032
  _c1033
  _c1034
  _c1035
  _c1036
  _c1037
  _c1038
  _c1039
  _c104
  _c1040
  _c1041
  _c1042
  _c1043
  _c1044
  _c1045
  _c105
  _c106
  _c107
  _c109
  _c11
  _c110
  _c111
  _c112
  _c113
  _c114
  _c116
  _c117
  _c118
  _c119
  _c12
  _c120
  _c121
  _c122
  _c123
  _c124
  _c125
  _c126
  _c127
  _c128
  _c129
  _c13
  _c130
  _c131
  _c132
  _c133
  _c134
  _c136
  _c137
  _c138
  _c139
  _c14
  _c140
  _c141
  _c148
  _c149
  _c150
  _c152
  _c153
  _c154
  _c155
  _c156
  _c157
  _c158
  _c159
  _c160
  _c161
  _c162
  _c163
  _c164
  _c165
  _c166
  _c167
  _c169
  _c170
  _c171
  _c172
  _c173
  _c174
  _c175
  _c176
  _c178
  _c179
  _c181
  _c182
  _c2
  _c200
  _c201
  _c202
  _c203
  _c204
  _c205
  _c206
  _c207
  _c208
  _c209
  _c210
  _c211
  _c212
  _c213
  _c214
  _c215
  _c216
  _c217
  _c218
  _c220
  _c221
  _c222
  _c223
  _c224
  _c239
  _c240
  _c246
  _c247
  _c248
  _c249
  _c250
  _c251
  _c253
  _c254
  _c255
  _c256
  _c257
  _c258
  _c259
  _c260
  _c261
  _c262
  _c263
  _c264
  _c265
  _c266
  _c295
  _c296
  _c297
  _c298
  _c299
  _c3
  _c300
  _c301
  _c302
  _c303
  _c304
  _c305
  _c306
  _c307
  _c308
  _c309
  _c310
  _c311
  _c312
  _c313
  _c314
  _c315
  _c316
  _c317
  _c318
  _c319
  _c320
  _c321
  _c322
  _c323
  _c324
  _c325
  _c326
  _c327
  _c328
  _c329
  _c330
  _c331
  _c332
  _c333
  _c334
  _c335
  _c336
  _c337
  _c338
  _c340
  _c341
  _c342
  _c344
  _c345
  _c346
  _c348
  _c349
  _c351
  _c352
  _c353
  _c354
  _c356
  _c357
  _c358
  _c359
  _c361
  _c362
  _c363
  _c364
  _c365
  _c366
  _c367
  _c368
  _c369
  _c370
  _c372
  _c373
  _c374
  _c375
  _c376
  _c377
  _c378
  _c379
  _c394
  _c395
  _c396
  _c397
  _c398
  _c399
  _c4
  _c400
  _c401
  _c402
  _c403
  _c404
  _c405
  _c406
  _c407
  _c408
  _c409
  _c410
  _c411
  _c412
  _c414
  _c415
  _c416
  _c417
  _c418
  _c419
  _c420
  _c421
  _c429
  _c431
  _c432
  _c433
  _c434
  _c435
  _c436
  _c437
  _c440
  _c441
  _c442
  _c443
  _c444
  _c445
  _c446
  _c447
  _c448
  _c449
  _c450
  _c451
  _c452
  _c453
  _c454
  _c456
  _c457
  _c458
  _c459
  _c460
  _c461
  _c462
  _c463
  _c492
  _c493
  _c494
  _c495
  _c496
  _c497
  _c498
  _c499
  _c5
  _c50
  _c500
  _c501
  _c502
  _c503
  _c504
  _c505
  _c52
  _c527
  _c528
  _c529
  _c53
  _c530
  _c531
  _c532
  _c533
  _c534
  _c535
  _c536
  _c537
  _c539
  _c54
  _c540
  _c541
  _c542
  _c543
  _c544
  _c545
  _c546
  _c547
  _c55
  _c56
  _c6
  _c625
  _c626
  _c627
  _c628
  _c629
  _c630
  _c631
  _c632
  _c633
  _c634
  _c635
  _c636
  _c637
  _c638
  _c639
  _c640
  _c641
  _c642
  _c643
  _c644
  _c645
  _c646
  _c647
  _c648
  _c649
  _c650
  _c651
  _c652
  _c653
  _c654
  _c655
  _c656
  _c657
  _c658
  _c659
  _c660
  _c661
  _c662
  _c663
  _c664
  _c665
  _c666
  _c667
  _c668
  _c669
  _c670
  _c671
  _c672
  _c673
  _c674
  _c675
  _c676
  _c677
  _c678
  _c679
  _c680
  _c681
  _c682
  _c683
  _c684
  _c685
  _c686
  _c687
  _c688
  _c689
  _c690
  _c691
  _c692
  _c693
  _c694
  _c695
  _c696
  _c697
  _c698
  _c699
  _c7
  _c700
  _c701
  _c702
  _c703
  _c704
  _c705
  _c706
  _c707
  _c708
  _c709
  _c710
  _c711
  _c712
  _c713
  _c714
  _c715
  _c716
  _c717
  _c718
  _c719
  _c720
  _c721
  _c722
  _c723
  _c724
  _c725
  _c726
  _c727
  _c728
  _c729
  _c730
  _c731
  _c732
  _c733
  _c734
  _c735
  _c736
  _c737
  _c738
  _c739
  _c740
  _c741
  _c742
  _c743
  _c744
  _c745
  _c746
  _c747
  _c748
  _c749
  _c750
  _c751
  _c752
  _c753
  _c754
  _c755
  _c756
  _c757
  _c758
  _c759
  _c760
  _c761
  _c762
  _c763
  _c764
  _c765
  _c766
  _c767
  _c768
  _c769
  _c770
  _c771
  _c772
  _c773
  _c774
  _c775
  _c776
  _c777
  _c778
  _c779
  _c780
  _c781
  _c782
  _c783
  _c784
  _c785
  _c786
  _c787
  _c788
  _c789
  _c790
  _c791
  _c792
  _c793
  _c794
  _c795
  _c796
  _c797
  _c798
  _c799
  _c8
  _c800
  _c801
  _c802
  _c803
  _c804
  _c805
  _c806
  _c807
  _c808
  _c809
  _c810
  _c811
  _c812
  _c813
  _c814
  _c815
  _c816
  _c817
  _c818
  _c819
  _c820
  _c821
  _c822
  _c823
  _c824
  _c825
  _c826
  _c827
  _c828
  _c829
  _c830
  _c831
  _c832
  _c833
  _c834
  _c835
  _c836
  _c837
  _c838
  _c839
  _c840
  _c841
  _c842
  _c843
  _c844
  _c845
  _c846
  _c847
  _c848
  _c849
  _c850
  _c851
  _c852
  _c853
  _c854
  _c855
  _c856
  _c857
  _c858
  _c859
  _c860
  _c861
  _c862
  _c863
  _c864
  _c865
  _c866
  _c867
  _c868
  _c869
  _c870
  _c871
  _c872
  _c873
  _c874
  _c875
  _c876
  _c877
  _c878
  _c879
  _c880
  _c881
  _c882
  _c883
  _c884
  _c885
  _c886
  _c887
  _c888
  _c889
  _c890
  _c891
  _c892
  _c893
  _c894
  _c895
  _c896
  _c897
  _c898
  _c899
  _c9
  _c900
  _c901
  _c902
  _c903
  _c904
  _c905
  _c906
  _c907
  _c908
  _c909
  _c910
  _c911
  _c912
  _c913
  _c914
  _c915
  _c916
  _c917
  _c918
  _c919
  _c920
  _c921
  _c922
  _c923
  _c924
  _c925
  _c926
  _c927
  _c928
  _c929
  _c930
  _c931
  _c932
  _c933
  _c934
  _c935
  _c936
  _c937
  _c938
  _c939
  _c940
  _c941
  _c942
  _c943
  _c944
  _c945
  _c946
  _c947
  _c948
  _c949
  _c950
  _c951
  _c952
  _c953
  _c954
  _c955
  _c956
  _c957
  _c958
  _c959
  _c960
  _c961
  _c962
  _c963
  _c964
  _c965
  _c966
  _c967
  _c968
  _c969
  _c970
  _c971
  _c972
  _c973
  _c974
  _c975
  _c976
  _c977
  _c978
  _c979
  _c980
  _c981
  _c982
  _c983
  _c984
  _c985
  _c986
  _c987
  _c988
  _c989
  _c991
  _c992
  _c993
  _c994
  _c995
  _c996
  _c998
  _c999 )
